50
129650

6312 6312
6891 6891
664 664
4243 4243
8377 8377
7962 7962
6635 6635
4970 4970
7809 7809
5867 5867
9559 9559
3579 3579
8269 8269
2282 2282
4618 4618
2290 2290
1554 1554
4105 4105
8726 8726
9862 9862
2408 2408
5082 5082
1619 1619
1209 1209
5410 5410
7736 7736
9172 9172
1650 1650
5797 5797
7114 7114
5181 5181
3351 3351
9053 9053
7816 7816
7254 7254
8542 8542
4268 4268
1021 1021
8990 8990
231 231
1529 1529
6535 6535
19 19
8087 8087
5459 5459
3997 3997
5329 5329
1032 1032
3131 3131
9299 9299
